(declare-const c_0 Real)
(declare-const c_1 Real)
(declare-const c_2 Real)
(declare-const c_3 Real)
(declare-const c_4 Real)
(declare-const c_5 Real)
(declare-const c_6 Real)
(declare-const c_7 Real)
(declare-const c_8 Real)
(declare-const c_9 Real)
(declare-const c_10 Real)
(declare-const c_11 Real)
(declare-const c_12 Real)
(declare-const c_13 Real)
(declare-const c_14 Real)
(declare-const c_15 Real)
(declare-const c_16 Real)
(declare-const c_17 Real)
(declare-const c_18 Real)
(declare-const c_19 Real)
(declare-const c_20 Real)
(declare-const c_21 Real)
(declare-const c_22 Real)
(declare-const c_23 Real)
(declare-const c_24 Real)
(declare-const c_25 Real)
(declare-const c_26 Real)
(declare-const c_27 Real)
(declare-const c_28 Real)
(declare-const c_29 Real)
(declare-const c_30 Real)
(declare-const c_31 Real)
(declare-const c_32 Real)
(declare-const c_33 Real)
(declare-const c_34 Real)
(declare-const c_35 Real)
(declare-const c_36 Real)
(declare-const c_37 Real)
(declare-const c_38 Real)
(declare-const c_39 Real)
(declare-const c_40 Real)
(declare-const c_41 Real)
(declare-const c_42 Real)
(declare-const c_43 Real)
(declare-const c_44 Real)
(declare-const s_0 Real)
(declare-const s_1 Real)
(declare-const s_2 Real)
(declare-const s_3 Real)
(declare-const s_4 Real)
(declare-const s_5 Real)
(declare-const s_6 Real)
(declare-const s_7 Real)
(declare-const s_8 Real)
(declare-const s_9 Real)
(declare-const s_10 Real)
(declare-const s_11 Real)
(declare-const s_12 Real)
(declare-const s_13 Real)
(declare-const s_14 Real)
(declare-const s_15 Real)
(declare-const s_16 Real)
(declare-const s_17 Real)
(declare-const s_18 Real)
(declare-const s_19 Real)
(declare-const s_20 Real)
(declare-const s_21 Real)
(declare-const s_22 Real)
(declare-const s_23 Real)
(declare-const s_24 Real)
(declare-const s_25 Real)
(declare-const s_26 Real)
(declare-const s_27 Real)
(declare-const s_28 Real)
(declare-const s_29 Real)
(declare-const s_30 Real)
(declare-const s_31 Real)
(declare-const s_32 Real)
(declare-const s_33 Real)
(declare-const s_34 Real)
(declare-const s_35 Real)
(declare-const s_36 Real)
(declare-const s_37 Real)
(declare-const s_38 Real)
(declare-const s_39 Real)
(declare-const s_40 Real)
(declare-const s_41 Real)
(declare-const s_42 Real)
(declare-const s_43 Real)
(declare-const s_44 Real)
(assert (forall ((temp Real) (r Real) (da Real) (db Real) ) (=> (and (>= (+ (* 1024 1) (* 1 temp ) ) 0) (>= (+ (* 1023 1) (* (- 1) temp ) ) 0) (>= (+ (* 1024 1) (* 1 r ) ) 0) (>= (+ (* 1023 1) (* (- 1) r ) ) 0) (>= (+ (* 1024 1) (* 1 da ) ) 0) (>= (+ (* 1023 1) (* (- 1) da ) ) 0) (>= (+ (* 1024 1) (* 1 db ) ) 0) (>= (+ (* 1023 1) (* (- 1) db ) ) 0) ) (>= (+ (* 1 da db s_2 ) (* 1 da r s_3 ) (* 1 da s_1 ) (* 1 da s_4 temp ) (* 1 da da s_5 ) (* 1 db r s_7 ) (* 1 db s_6 ) (* 1 db s_8 temp ) (* 1 db db s_9 ) (* 1 r s_10 ) (* 1 r s_11 temp ) (* 1 r r s_12 ) (* 1 s_0 ) (* 1 s_13 temp ) (* 1 s_14 temp temp ) ) 0) )))
(assert (forall ((temp Real) (r Real) (da Real) (db Real) ) (=> (and (>= (+ (* 1024 1) (* 1 temp ) ) 0) (>= (+ (* 1023 1) (* (- 1) temp ) ) 0) (>= (+ (* 1024 1) (* 1 r ) ) 0) (>= (+ (* 1023 1) (* (- 1) r ) ) 0) (>= (+ (* 1024 1) (* 1 da ) ) 0) (>= (+ (* 1023 1) (* (- 1) da ) ) 0) (>= (+ (* 1024 1) (* 1 db ) ) 0) (>= (+ (* 1023 1) (* (- 1) db ) ) 0) ) (>= (+ (* 1 c_0 ) (* 1 c_1 da ) (* 1 c_10 r ) (* 1 c_11 r temp ) (* 1 c_12 r r ) (* 1 c_13 temp ) (* 1 c_14 temp temp ) (* 1 c_2 da db ) (* 1 c_3 da r ) (* 1 c_4 da temp ) (* 1 c_5 da da ) (* 1 c_6 db ) (* 1 c_7 db r ) (* 1 c_8 db temp ) (* 1 c_9 db db ) ) 0) )))
(assert (forall ((temp Real) (r Real) (da Real) (db Real) ) (=> (and (>= (* 1 r ) 0) (>= (+ (* 1024 1) (* 1 temp ) ) 0) (>= (+ (* 1024 1) (* 1 r ) ) 0) (>= (+ (* 1024 1) (* 1 da ) ) 0) (>= (+ (* 1024 1) (* 1 db ) ) 0) (>= (+ (* 1023 1) (* (- 1) db ) ) 0) (>= (+ (* 1023 1) (* (- 1) da ) ) 0) (>= (+ (* 1023 1) (* (- 1) r ) ) 0) (>= (+ (* 1023 1) (* (- 1) temp ) ) 0) (>= (+ (* 1 da db s_2 ) (* 1 da r s_3 ) (* 1 da s_1 ) (* 1 da s_4 temp ) (* 1 da da s_5 ) (* 1 db r s_7 ) (* 1 db s_6 ) (* 1 db s_8 temp ) (* 1 db db s_9 ) (* 1 r s_10 ) (* 1 r s_11 temp ) (* 1 r r s_12 ) (* 1 s_0 ) (* 1 s_13 temp ) (* 1 s_14 temp temp ) ) 0) ) (>= (+ (* 2 r s_16 ) (* 2 r s_19 temp ) (* 2 r s_21 ) (* 2 r s_23 temp ) (* 1 r s_25 ) (* 1 r s_26 temp ) (* 4 r r s_17 ) (* 2 r r s_18 ) (* 4 r r s_20 ) (* 2 r r s_22 ) (* 4 r r s_24 ) (* 1 r r s_27 ) (* 1 s_15 ) (* 1 s_28 temp ) (* 1 s_29 temp temp ) ) 0) )))
(assert (forall ((temp Real) (r Real) (da Real) (db Real) ) (=> (and (>= (* 1 r ) 0) (>= (+ (* 1024 1) (* 1 temp ) ) 0) (>= (+ (* 1024 1) (* 1 r ) ) 0) (>= (+ (* 1024 1) (* 1 da ) ) 0) (>= (+ (* 1024 1) (* 1 db ) ) 0) (>= (+ (* 1023 1) (* (- 1) db ) ) 0) (>= (+ (* 1023 1) (* (- 1) da ) ) 0) (>= (+ (* 1023 1) (* (- 1) r ) ) 0) (>= (+ (* 1023 1) (* (- 1) temp ) ) 0) (>= (+ (* 1 da db s_2 ) (* 1 da r s_3 ) (* 1 da s_1 ) (* 1 da s_4 temp ) (* 1 da da s_5 ) (* 1 db r s_7 ) (* 1 db s_6 ) (* 1 db s_8 temp ) (* 1 db db s_9 ) (* 1 r s_10 ) (* 1 r s_11 temp ) (* 1 r r s_12 ) (* 1 s_0 ) (* 1 s_13 temp ) (* 1 s_14 temp temp ) ) 0) ) (>= (+ (* 1 c_15 ) (* 2 c_16 r ) (* 4 c_17 r r ) (* 2 c_18 r r ) (* 2 c_19 r temp ) (* 4 c_20 r r ) (* 2 c_21 r ) (* 2 c_22 r r ) (* 2 c_23 r temp ) (* 4 c_24 r r ) (* 1 c_25 r ) (* 1 c_26 r temp ) (* 1 c_27 r r ) (* 1 c_28 temp ) (* 1 c_29 temp temp ) ) 0) )))
(assert (forall ((temp Real) (r Real) (da Real) (db Real) ) (=> (and (>= (* 1 r ) 0) (>= (+ (* 1024 1) (* 1 temp ) ) 0) (>= (+ (* 1024 1) (* 1 r ) ) 0) (>= (+ (* 1024 1) (* 1 da ) ) 0) (>= (+ (* 1024 1) (* 1 db ) ) 0) (>= (+ (* 1023 1) (* (- 1) db ) ) 0) (>= (+ (* 1023 1) (* (- 1) da ) ) 0) (>= (+ (* 1023 1) (* (- 1) r ) ) 0) (>= (+ (* 1023 1) (* (- 1) temp ) ) 0) (>= (+ (* 1 da db s_2 ) (* 1 da r s_3 ) (* 1 da s_1 ) (* 1 da s_4 temp ) (* 1 da da s_5 ) (* 1 db r s_7 ) (* 1 db s_6 ) (* 1 db s_8 temp ) (* 1 db db s_9 ) (* 1 r s_10 ) (* 1 r s_11 temp ) (* 1 r r s_12 ) (* 1 s_0 ) (* 1 s_13 temp ) (* 1 s_14 temp temp ) ) 0) ) (>= (+ (* (- 1) 1) (* 1 c_0 ) (* 1 c_1 da ) (* 1 c_10 r ) (* 1 c_11 r temp ) (* 1 c_12 r r ) (* 1 c_13 temp ) (* 1 c_14 temp temp ) (* (- 1) c_15 ) (* (- 2) c_16 r ) (* (- 4) c_17 r r ) (* (- 2) c_18 r r ) (* (- 2) c_19 r temp ) (* 1 c_2 da db ) (* (- 4) c_20 r r ) (* (- 2) c_21 r ) (* (- 2) c_22 r r ) (* (- 2) c_23 r temp ) (* (- 4) c_24 r r ) (* (- 1) c_25 r ) (* (- 1) c_26 r temp ) (* (- 1) c_27 r r ) (* (- 1) c_28 temp ) (* (- 1) c_29 temp temp ) (* 1 c_3 da r ) (* 1 c_4 da temp ) (* 1 c_5 da da ) (* 1 c_6 db ) (* 1 c_7 db r ) (* 1 c_8 db temp ) (* 1 c_9 db db ) ) 0) )))
(assert (forall ((temp Real) (r Real) (da Real) (db Real) ) (=> (and (>= (+ (* (- 1) 1) (* (- 1) r ) ) 0) (>= (+ (* 1024 1) (* 1 temp ) ) 0) (>= (+ (* 1024 1) (* 1 r ) ) 0) (>= (+ (* 1024 1) (* 1 da ) ) 0) (>= (+ (* 1024 1) (* 1 db ) ) 0) (>= (+ (* 1023 1) (* (- 1) db ) ) 0) (>= (+ (* 1023 1) (* (- 1) da ) ) 0) (>= (+ (* 1023 1) (* (- 1) r ) ) 0) (>= (+ (* 1023 1) (* (- 1) temp ) ) 0) (>= (+ (* 1 da db s_2 ) (* 1 da r s_3 ) (* 1 da s_1 ) (* 1 da s_4 temp ) (* 1 da da s_5 ) (* 1 db r s_7 ) (* 1 db s_6 ) (* 1 db s_8 temp ) (* 1 db db s_9 ) (* 1 r s_10 ) (* 1 r s_11 temp ) (* 1 r r s_12 ) (* 1 s_0 ) (* 1 s_13 temp ) (* 1 s_14 temp temp ) ) 0) ) (>= (+ (* 1 da db s_32 ) (* 1 da r s_33 ) (* 1 da s_31 ) (* 1 da s_34 temp ) (* 1 da da s_35 ) (* 1 db r s_37 ) (* 1 db s_36 ) (* 1 db s_38 temp ) (* 1 db db s_39 ) (* 1 r s_40 ) (* 1 r s_41 temp ) (* 1 r r s_42 ) (* 1 s_30 ) (* 1 s_43 temp ) (* 1 s_44 temp temp ) ) 0) )))
(assert (forall ((temp Real) (r Real) (da Real) (db Real) ) (=> (and (>= (+ (* (- 1) 1) (* (- 1) r ) ) 0) (>= (+ (* 1024 1) (* 1 temp ) ) 0) (>= (+ (* 1024 1) (* 1 r ) ) 0) (>= (+ (* 1024 1) (* 1 da ) ) 0) (>= (+ (* 1024 1) (* 1 db ) ) 0) (>= (+ (* 1023 1) (* (- 1) db ) ) 0) (>= (+ (* 1023 1) (* (- 1) da ) ) 0) (>= (+ (* 1023 1) (* (- 1) r ) ) 0) (>= (+ (* 1023 1) (* (- 1) temp ) ) 0) (>= (+ (* 1 da db s_2 ) (* 1 da r s_3 ) (* 1 da s_1 ) (* 1 da s_4 temp ) (* 1 da da s_5 ) (* 1 db r s_7 ) (* 1 db s_6 ) (* 1 db s_8 temp ) (* 1 db db s_9 ) (* 1 r s_10 ) (* 1 r s_11 temp ) (* 1 r r s_12 ) (* 1 s_0 ) (* 1 s_13 temp ) (* 1 s_14 temp temp ) ) 0) ) (>= (+ (* 1 c_30 ) (* 1 c_31 da ) (* 1 c_32 da db ) (* 1 c_33 da r ) (* 1 c_34 da temp ) (* 1 c_35 da da ) (* 1 c_36 db ) (* 1 c_37 db r ) (* 1 c_38 db temp ) (* 1 c_39 db db ) (* 1 c_40 r ) (* 1 c_41 r temp ) (* 1 c_42 r r ) (* 1 c_43 temp ) (* 1 c_44 temp temp ) ) 0) )))
(assert (forall ((temp Real) (r Real) (da Real) (db Real) ) (=> (and (>= (+ (* 1 da ) (* (- 1) r ) ) 0) (>= (+ (* 1023 1) (* (- 1023) db ) (* 2046 r ) (* (- 1) temp ) ) 0) (>= (+ (* 1023 1) (* (- 1) r ) ) 0) (>= (* 1 r ) 0) (>= (+ (* (- 1) db ) (* 2 r ) ) 0) (>= (+ (* (- 1) da ) (* 1 db ) ) 0) (>= (+ (* 1 da db s_17 ) (* 1 da r s_18 ) (* 1 da s_16 ) (* 1 da s_19 temp ) (* 1 da da s_20 ) (* 1 db r s_22 ) (* 1 db s_21 ) (* 1 db s_23 temp ) (* 1 db db s_24 ) (* 1 r s_25 ) (* 1 r s_26 temp ) (* 1 r r s_27 ) (* 1 s_15 ) (* 1 s_28 temp ) (* 1 s_29 temp temp ) ) 0) ) (>= (+ (* 1 da db s_17 ) (* 1 da r s_18 ) (* 1 da s_16 ) (* 1 da s_19 temp ) (* (- 2) da s_20 ) (* 1 da da s_20 ) (* 1 db r s_22 ) (* (- 1) db s_17 ) (* 1 db s_21 ) (* 1 db s_23 temp ) (* 1 db db s_24 ) (* (- 1) r s_18 ) (* 1 r s_25 ) (* 1 r s_26 temp ) (* 1 r r s_27 ) (* 1 s_15 ) (* (- 1) s_16 ) (* (- 1) s_19 temp ) (* 1 s_20 ) (* 1 s_28 temp ) (* 1 s_29 temp temp ) ) 0) )))
(assert (forall ((temp Real) (r Real) (da Real) (db Real) ) (=> (and (>= (+ (* 1 da ) (* (- 1) r ) ) 0) (>= (+ (* 1023 1) (* (- 1023) db ) (* 2046 r ) (* (- 1) temp ) ) 0) (>= (+ (* 1023 1) (* (- 1) r ) ) 0) (>= (* 1 r ) 0) (>= (+ (* (- 1) db ) (* 2 r ) ) 0) (>= (+ (* (- 1) da ) (* 1 db ) ) 0) (>= (+ (* 1 da db s_17 ) (* 1 da r s_18 ) (* 1 da s_16 ) (* 1 da s_19 temp ) (* 1 da da s_20 ) (* 1 db r s_22 ) (* 1 db s_21 ) (* 1 db s_23 temp ) (* 1 db db s_24 ) (* 1 r s_25 ) (* 1 r s_26 temp ) (* 1 r r s_27 ) (* 1 s_15 ) (* 1 s_28 temp ) (* 1 s_29 temp temp ) ) 0) ) (>= (+ (* 1 c_15 ) (* (- 1) c_16 ) (* 1 c_16 da ) (* 1 c_17 da db ) (* (- 1) c_17 db ) (* 1 c_18 da r ) (* (- 1) c_18 r ) (* 1 c_19 da temp ) (* (- 1) c_19 temp ) (* 1 c_20 ) (* (- 2) c_20 da ) (* 1 c_20 da da ) (* 1 c_21 db ) (* 1 c_22 db r ) (* 1 c_23 db temp ) (* 1 c_24 db db ) (* 1 c_25 r ) (* 1 c_26 r temp ) (* 1 c_27 r r ) (* 1 c_28 temp ) (* 1 c_29 temp temp ) ) 0) )))
(assert (forall ((temp Real) (r Real) (da Real) (db Real) ) (=> (and (>= (+ (* 1 da ) (* (- 1) r ) ) 0) (>= (+ (* 1023 1) (* (- 1023) db ) (* 2046 r ) (* (- 1) temp ) ) 0) (>= (+ (* 1023 1) (* (- 1) r ) ) 0) (>= (* 1 r ) 0) (>= (+ (* (- 1) db ) (* 2 r ) ) 0) (>= (+ (* (- 1) da ) (* 1 db ) ) 0) (>= (+ (* 1 da db s_17 ) (* 1 da r s_18 ) (* 1 da s_16 ) (* 1 da s_19 temp ) (* 1 da da s_20 ) (* 1 db r s_22 ) (* 1 db s_21 ) (* 1 db s_23 temp ) (* 1 db db s_24 ) (* 1 r s_25 ) (* 1 r s_26 temp ) (* 1 r r s_27 ) (* 1 s_15 ) (* 1 s_28 temp ) (* 1 s_29 temp temp ) ) 0) ) (>= (+ (* (- 1) 1) (* 1 c_16 ) (* 1 c_17 db ) (* 1 c_18 r ) (* 1 c_19 temp ) (* (- 1) c_20 ) (* 2 c_20 da ) ) 0) )))
(assert (forall ((temp Real) (r Real) (da Real) (db Real) ) (=> (and (>= (+ (* 1 da ) (* (- 1) r ) ) 0) (>= (+ (* 1023 1) (* (- 1023) db ) (* 2046 r ) (* (- 1) temp ) ) 0) (>= (+ (* 1023 1) (* (- 1) r ) ) 0) (>= (* 1 r ) 0) (>= (+ (* (- 1) db ) (* 2 r ) ) 0) (>= (+ (* (- 1) da ) (* 1 db ) ) 0) (>= (+ (* 1 da db s_17 ) (* 1 da r s_18 ) (* 1 da s_16 ) (* 1 da s_19 temp ) (* 1 da da s_20 ) (* 1 db r s_22 ) (* 1 db s_21 ) (* 1 db s_23 temp ) (* 1 db db s_24 ) (* 1 r s_25 ) (* 1 r s_26 temp ) (* 1 r r s_27 ) (* 1 s_15 ) (* 1 s_28 temp ) (* 1 s_29 temp temp ) ) 0) ) (>= (+ (* 1 da db s_19 ) (* 1 da db s_23 ) (* 1 da r s_26 ) (* (- 1) da s_19 ) (* (- 1) da s_23 ) (* 1 da s_28 ) (* 1 da da s_29 ) (* 1 db r s_18 ) (* 1 db r s_22 ) (* 1 db s_16 ) (* (- 2) db s_17 ) (* (- 2) db s_20 ) (* 1 db s_21 ) (* (- 2) db s_24 ) (* 1 db db s_17 ) (* 1 db db s_20 ) (* 1 db db s_24 ) (* (- 1) r s_18 ) (* (- 1) r s_22 ) (* 1 r s_25 ) (* 1 r r s_27 ) (* 1 s_15 ) (* (- 1) s_16 ) (* 1 s_17 ) (* 1 s_20 ) (* (- 1) s_21 ) (* 1 s_24 ) ) 0) )))
(assert (forall ((temp Real) (r Real) (da Real) (db Real) ) (=> (and (>= (+ (* 1 da ) (* (- 1) r ) ) 0) (>= (+ (* 1023 1) (* (- 1023) db ) (* 2046 r ) (* (- 1) temp ) ) 0) (>= (+ (* 1023 1) (* (- 1) r ) ) 0) (>= (* 1 r ) 0) (>= (+ (* (- 1) db ) (* 2 r ) ) 0) (>= (+ (* (- 1) da ) (* 1 db ) ) 0) (>= (+ (* 1 da db s_17 ) (* 1 da r s_18 ) (* 1 da s_16 ) (* 1 da s_19 temp ) (* 1 da da s_20 ) (* 1 db r s_22 ) (* 1 db s_21 ) (* 1 db s_23 temp ) (* 1 db db s_24 ) (* 1 r s_25 ) (* 1 r s_26 temp ) (* 1 r r s_27 ) (* 1 s_15 ) (* 1 s_28 temp ) (* 1 s_29 temp temp ) ) 0) ) (>= (+ (* 1 c_15 ) (* (- 1) c_16 ) (* 1 c_16 db ) (* 1 c_17 ) (* (- 2) c_17 db ) (* 1 c_17 db db ) (* 1 c_18 db r ) (* (- 1) c_18 r ) (* (- 1) c_19 da ) (* 1 c_19 da db ) (* 1 c_20 ) (* (- 2) c_20 db ) (* 1 c_20 db db ) (* (- 1) c_21 ) (* 1 c_21 db ) (* 1 c_22 db r ) (* (- 1) c_22 r ) (* (- 1) c_23 da ) (* 1 c_23 da db ) (* 1 c_24 ) (* (- 2) c_24 db ) (* 1 c_24 db db ) (* 1 c_25 r ) (* 1 c_26 da r ) (* 1 c_27 r r ) (* 1 c_28 da ) (* 1 c_29 da da ) ) 0) )))
(assert (forall ((temp Real) (r Real) (da Real) (db Real) ) (=> (and (>= (+ (* 1 da ) (* (- 1) r ) ) 0) (>= (+ (* 1023 1) (* (- 1023) db ) (* 2046 r ) (* (- 1) temp ) ) 0) (>= (+ (* 1023 1) (* (- 1) r ) ) 0) (>= (* 1 r ) 0) (>= (+ (* (- 1) db ) (* 2 r ) ) 0) (>= (+ (* (- 1) da ) (* 1 db ) ) 0) (>= (+ (* 1 da db s_17 ) (* 1 da r s_18 ) (* 1 da s_16 ) (* 1 da s_19 temp ) (* 1 da da s_20 ) (* 1 db r s_22 ) (* 1 db s_21 ) (* 1 db s_23 temp ) (* 1 db db s_24 ) (* 1 r s_25 ) (* 1 r s_26 temp ) (* 1 r r s_27 ) (* 1 s_15 ) (* 1 s_28 temp ) (* 1 s_29 temp temp ) ) 0) ) (>= (+ (* (- 1) 1) (* 1 c_16 ) (* 1 c_16 da ) (* (- 1) c_16 db ) (* (- 1) c_17 ) (* 1 c_17 da db ) (* 2 c_17 db ) (* (- 1) c_17 db db ) (* 1 c_18 da r ) (* (- 1) c_18 db r ) (* 1 c_18 r ) (* 1 c_19 da ) (* (- 1) c_19 da db ) (* 1 c_19 da temp ) (* (- 1) c_20 ) (* 1 c_20 da da ) (* 2 c_20 db ) (* (- 1) c_20 db db ) (* 1 c_21 ) (* 1 c_22 r ) (* 1 c_23 da ) (* (- 1) c_23 da db ) (* 1 c_23 db temp ) (* (- 1) c_24 ) (* 2 c_24 db ) (* (- 1) c_26 da r ) (* 1 c_26 r temp ) (* (- 1) c_28 da ) (* 1 c_28 temp ) (* (- 1) c_29 da da ) (* 1 c_29 temp temp ) ) 0) )))
(assert (forall ((temp Real) (r Real) (da Real) (db Real) ) (=> (and (>= (+ (* (- 1) 1) (* (- 1) da ) (* 1 r ) ) 0) (>= (+ (* 1023 1) (* (- 1023) db ) (* 2046 r ) (* (- 1) temp ) ) 0) (>= (+ (* 1023 1) (* (- 1) r ) ) 0) (>= (* 1 r ) 0) (>= (+ (* (- 1) db ) (* 2 r ) ) 0) (>= (+ (* (- 1) da ) (* 1 db ) ) 0) (>= (+ (* 1 da db s_17 ) (* 1 da r s_18 ) (* 1 da s_16 ) (* 1 da s_19 temp ) (* 1 da da s_20 ) (* 1 db r s_22 ) (* 1 db s_21 ) (* 1 db s_23 temp ) (* 1 db db s_24 ) (* 1 r s_25 ) (* 1 r s_26 temp ) (* 1 r r s_27 ) (* 1 s_15 ) (* 1 s_28 temp ) (* 1 s_29 temp temp ) ) 0) ) (>= (+ (* 1 da db s_32 ) (* 1 da r s_33 ) (* 1 da s_31 ) (* 1 da s_34 temp ) (* 1 da da s_35 ) (* 1 db r s_37 ) (* 1 db s_36 ) (* 1 db s_38 temp ) (* 1 db db s_39 ) (* 1 r s_40 ) (* 1 r s_41 temp ) (* 1 r r s_42 ) (* 1 s_30 ) (* 1 s_43 temp ) (* 1 s_44 temp temp ) ) 0) )))
(assert (forall ((temp Real) (r Real) (da Real) (db Real) ) (=> (and (>= (+ (* (- 1) 1) (* (- 1) da ) (* 1 r ) ) 0) (>= (+ (* 1023 1) (* (- 1023) db ) (* 2046 r ) (* (- 1) temp ) ) 0) (>= (+ (* 1023 1) (* (- 1) r ) ) 0) (>= (* 1 r ) 0) (>= (+ (* (- 1) db ) (* 2 r ) ) 0) (>= (+ (* (- 1) da ) (* 1 db ) ) 0) (>= (+ (* 1 da db s_17 ) (* 1 da r s_18 ) (* 1 da s_16 ) (* 1 da s_19 temp ) (* 1 da da s_20 ) (* 1 db r s_22 ) (* 1 db s_21 ) (* 1 db s_23 temp ) (* 1 db db s_24 ) (* 1 r s_25 ) (* 1 r s_26 temp ) (* 1 r r s_27 ) (* 1 s_15 ) (* 1 s_28 temp ) (* 1 s_29 temp temp ) ) 0) ) (>= (+ (* 1 c_30 ) (* 1 c_31 da ) (* 1 c_32 da db ) (* 1 c_33 da r ) (* 1 c_34 da temp ) (* 1 c_35 da da ) (* 1 c_36 db ) (* 1 c_37 db r ) (* 1 c_38 db temp ) (* 1 c_39 db db ) (* 1 c_40 r ) (* 1 c_41 r temp ) (* 1 c_42 r r ) (* 1 c_43 temp ) (* 1 c_44 temp temp ) ) 0) )))

(check-sat)
(get-model)
